language Essence 1.3

letting class be function(1 --> 1, 2 --> 1, 3 --> 1, 4 --> 1, 5 --> 1, 6 --> 1, 7 --> 1, 8 --> 1, 9 --> 1)
letting deck_length be 17
letting deck_width be 23
letting length be function(1 --> 15, 2 --> 17, 3 --> 5, 4 --> 5, 5 --> 5, 6 --> 1, 7 --> 7, 8 --> 3, 9 --> 10)
letting n_classes be 1
letting n_containers be 9
letting separation be function()
letting width be function(1 --> 5, 2 --> 9, 3 --> 1, 4 --> 1, 5 --> 1, 6 --> 4, 7 --> 9, 8 --> 1, 9 --> 7)
